
n_res = 8;
rcap = [31, 33, 32, 30, 752, 703, 756, 748];
rtype = [1, 1, 1, 1, 2, 2, 2, 2];
n_tasks = 50;
modes =  [{1, 2, 3, 4, 5, 6}, {7, 8, 9, 10, 11, 12}, {13, 14, 15, 16, 17, 18}, {19, 20, 21, 22, 23, 24}, {25, 26, 27, 28, 29, 30}, {31, 32, 33, 34, 35, 36}, {37, 38, 39, 40, 41, 42}, {43, 44, 45, 46, 47, 48}, {49, 50, 51, 52, 53, 54}, {55, 56, 57, 58, 59, 60}, {61, 62, 63, 64, 65, 66}, {67, 68, 69, 70, 71, 72}, {73, 74, 75, 76, 77, 78}, {79, 80, 81, 82, 83, 84}, {85, 86, 87, 88, 89, 90}, {91, 92, 93, 94, 95, 96}, {97, 98, 99, 100, 101, 102}, {103, 104, 105, 106, 107, 108}, {109, 110, 111, 112, 113, 114}, {115, 116, 117, 118, 119, 120}, {121, 122, 123, 124, 125, 126}, {127, 128, 129, 130, 131, 132}, {133, 134, 135, 136, 137, 138}, {139, 140, 141, 142, 143, 144}, {145, 146, 147, 148, 149, 150}, {151, 152, 153, 154, 155, 156}, {157, 158, 159, 160, 161, 162}, {163, 164, 165, 166, 167, 168}, {169, 170, 171, 172, 173, 174}, {175, 176, 177, 178, 179, 180}, {181, 182, 183, 184, 185, 186}, {187, 188, 189, 190, 191, 192}, {193, 194, 195, 196, 197, 198}, {199, 200, 201, 202, 203, 204}, {205, 206, 207, 208, 209, 210}, {211, 212, 213, 214, 215, 216}, {217, 218, 219, 220, 221, 222}, {223, 224, 225, 226, 227, 228}, {229, 230, 231, 232, 233, 234}, {235, 236, 237, 238, 239, 240}, {241, 242, 243, 244, 245, 246}, {247, 248, 249, 250, 251, 252}, {253, 254, 255, 256, 257, 258}, {259, 260, 261, 262, 263, 264}, {265, 266, 267, 268, 269, 270}, {271, 272, 273, 274, 275, 276}, {277, 278, 279, 280, 281, 282}, {283, 284, 285, 286, 287, 288}, {289, 290, 291, 292, 293, 294}, {295, 296, 297, 298, 299, 300}];
succ =  [{48, 42, 33, 26, 24, 21, 19, 18, 15}, {48, 47, 45, 33, 27, 19, 15, 14}, {49, 48, 47, 43, 40, 26, 19, 18, 14}, {50, 49, 48, 47, 26, 21, 19, 14}, {48, 46, 44, 42, 40, 32, 26, 25, 22, 21, 18}, {47, 43, 42, 31, 25, 24, 19, 15}, {47, 45, 43, 42, 41, 40, 27, 25, 24, 19}, {49, 42, 41, 40, 39, 37, 33, 24, 20}, {48, 40, 34, 28, 24, 21}, {47, 43, 42, 41, 38, 31, 24, 22}, {44, 43, 40, 25, 24, 19}, {46, 44, 40, 34, 24, 21}, {46, 45, 42, 40, 39, 38, 37, 36, 35, 34}, {46, 44, 42, 37, 31, 25, 24}, {49, 46, 44, 41, 40, 35, 34, 32}, {44, 43, 42, 38, 37, 36, 34, 31}, {48, 41, 40, 39, 38, 32}, {39, 38, 36, 34, 31}, {39, 38, 37, 35, 34}, {45, 38, 34, 32}, {43, 39, 38, 37}, {39, 37, 36, 34}, {37, 35, 34}, {36, 35}, {35, 34}, {45, 41}, {35, 34}, {47, 41}, {42, 36}, {40, 34}, {35}, {36}, {34}, {}, {}, {}, {}, {}, {}, {}, {}, {}, {}, {}, {}, {}, {}, {}, {}, {}];
n_opt = 300;
dur = [3, 9, 16, 19, 24, 25, 2, 6, 8, 9, 14, 23, 2, 7, 12, 13, 16, 30, 2, 8, 11, 17, 24, 26, 1, 4, 8, 9, 22, 23, 1, 13, 15, 17, 23, 26, 3, 7, 9, 25, 27, 30, 1, 5, 9, 10, 22, 29, 1, 3, 6, 12, 21, 29, 8, 12, 21, 22, 25, 29, 8, 9, 14, 15, 19, 26, 9, 24, 26, 27, 28, 29, 6, 16, 18, 23, 26, 29, 8, 12, 14, 21, 24, 25, 1, 5, 9, 17, 18, 29, 3, 5, 7, 11, 13, 15, 4, 13, 15, 17, 27, 29, 1, 12, 15, 24, 26, 27, 3, 4, 5, 6, 9, 14, 6, 11, 13, 14, 17, 27, 2, 6, 10, 18, 19, 22, 3, 21, 23, 24, 25, 29, 7, 13, 23, 28, 29, 30, 2, 8, 9, 11, 25, 30, 6, 14, 17, 21, 26, 27, 2, 11, 16, 18, 22, 24, 2, 4, 10, 15, 19, 28, 3, 6, 15, 21, 23, 26, 11, 17, 23, 24, 29, 30, 5, 6, 7, 9, 10, 15, 1, 6, 10, 13, 24, 27, 1, 11, 17, 18, 25, 30, 2, 20, 23, 24, 26, 27, 3, 4, 10, 17, 22, 30, 12, 14, 21, 26, 28, 29, 1, 2, 4, 23, 25, 29, 8, 10, 16, 22, 23, 29, 10, 11, 13, 15, 25, 26, 2, 3, 4, 9, 25, 27, 13, 14, 15, 19, 21, 25, 4, 10, 11, 16, 17, 18, 7, 11, 17, 19, 21, 24, 6, 7, 15, 25, 28, 30, 2, 7, 17, 22, 26, 27, 2, 10, 11, 13, 20, 30, 6, 7, 14, 23, 25, 28, 8, 9, 11, 15, 17, 24, 11, 12, 13, 18, 19, 24, 16, 18, 21, 25, 28, 29, 2, 20, 21, 22, 27, 29];
rreq = [|3, 2, 2, 2, 2, 2, 3, 3, 3, 3, 3, 3, 4, 4, 4, 3, 3, 2, 5, 5, 5, 5, 5, 5, 2, 2, 2, 2, 2, 2, 3, 3, 3, 3, 3, 3, 1, 1, 1, 1, 1, 1, 4, 4, 4, 4, 4, 4, 3, 3, 3, 3, 3, 3, 3, 2, 2, 2, 2, 2, 1, 1, 1, 1, 1, 1, 3, 3, 2, 2, 2, 1, 4, 3, 3, 3, 2, 2, 3, 3, 2, 2, 1, 1, 4, 3, 3, 2, 2, 1, 3, 3, 3, 3, 3, 3, 4, 3, 3, 3, 2, 2, 5, 5, 5, 5, 5, 5, 2, 2, 2, 2, 2, 2, 3, 2, 2, 2, 2, 2, 3, 3, 3, 3, 3, 3, 5, 4, 4, 4, 4, 4, 3, 2, 2, 2, 2, 2, 4, 4, 4, 3, 3, 3, 2, 2, 2, 2, 1, 1, 2, 2, 2, 2, 2, 2, 3, 3, 2, 2, 2, 1, 4, 4, 4, 3, 3, 2, 5, 5, 5, 5, 5, 5, 3, 3, 3, 3, 2, 2, 5, 3, 3, 3, 2, 1, 3, 3, 2, 2, 1, 1, 1, 1, 1, 1, 1, 1, 2, 2, 2, 2, 1, 1, 4, 3, 3, 3, 2, 2, 5, 4, 4, 3, 3, 2, 4, 4, 4, 4, 4, 4, 4, 4, 4, 4, 4, 4, 4, 4, 4, 3, 3, 3, 5, 4, 3, 3, 2, 1, 4, 4, 3, 3, 2, 2, 5, 5, 5, 5, 5, 5, 3, 2, 2, 1, 1, 1, 5, 5, 5, 5, 5, 5, 3, 3, 3, 2, 1, 1, 5, 5, 5, 5, 5, 5, 4, 3, 3, 2, 1, 1, 4, 3, 2, 2, 2, 1, 1, 1, 1, 1, 1, 1, 4, 3, 2, 2, 1, 1
 |3, 3, 3, 2, 2, 1, 5, 4, 4, 4, 3, 3, 3, 3, 2, 2, 1, 1, 4, 3, 3, 2, 2, 2, 3, 2, 2, 1, 1, 1, 3, 2, 2, 2, 1, 1, 5, 4, 4, 4, 3, 3, 4, 4, 4, 4, 4, 4, 4, 4, 3, 3, 3, 2, 4, 3, 3, 3, 2, 2, 3, 2, 2, 1, 1, 1, 2, 2, 2, 2, 2, 2, 4, 4, 3, 3, 2, 2, 5, 4, 4, 4, 4, 4, 3, 2, 2, 1, 1, 1, 2, 2, 2, 2, 2, 2, 4, 3, 2, 2, 1, 1, 5, 4, 4, 3, 2, 2, 3, 3, 3, 3, 2, 2, 5, 5, 5, 5, 5, 5, 3, 2, 2, 2, 1, 1, 4, 4, 4, 4, 4, 4, 3, 3, 2, 2, 1, 1, 2, 2, 2, 1, 1, 1, 3, 3, 3, 3, 3, 3, 4, 4, 4, 4, 4, 4, 3, 3, 3, 3, 3, 3, 1, 1, 1, 1, 1, 1, 2, 2, 2, 2, 2, 2, 3, 3, 2, 2, 1, 1, 4, 4, 4, 4, 4, 4, 3, 2, 2, 2, 1, 1, 4, 3, 2, 2, 2, 1, 3, 2, 2, 2, 1, 1, 3, 3, 3, 3, 3, 3, 4, 3, 2, 2, 1, 1, 5, 3, 3, 3, 1, 1, 3, 2, 2, 2, 2, 2, 4, 3, 3, 3, 2, 2, 4, 4, 4, 3, 2, 2, 4, 3, 3, 2, 2, 2, 4, 4, 4, 3, 2, 2, 3, 3, 3, 3, 3, 3, 4, 4, 4, 4, 4, 4, 2, 2, 2, 2, 2, 2, 2, 2, 2, 1, 1, 1, 1, 1, 1, 1, 1, 1, 2, 1, 1, 1, 1, 1, 3, 2, 2, 2, 2, 2, 5, 4, 4, 3, 2, 2
 |3, 3, 3, 2, 1, 1, 2, 2, 2, 2, 2, 2, 3, 2, 2, 1, 1, 1, 4, 4, 3, 2, 1, 1, 3, 2, 2, 2, 2, 2, 3, 3, 3, 3, 3, 3, 4, 3, 3, 3, 3, 3, 3, 2, 2, 1, 1, 1, 3, 3, 3, 3, 3, 3, 5, 3, 3, 3, 2, 1, 5, 4, 4, 4, 4, 4, 1, 1, 1, 1, 1, 1, 4, 4, 4, 4, 4, 4, 4, 4, 4, 4, 4, 4, 4, 4, 4, 4, 4, 4, 2, 2, 2, 2, 2, 2, 3, 3, 3, 3, 2, 2, 4, 4, 4, 4, 4, 4, 2, 1, 1, 1, 1, 1, 3, 3, 3, 3, 3, 3, 4, 4, 4, 4, 3, 3, 4, 4, 4, 4, 3, 3, 4, 4, 4, 3, 3, 3, 2, 2, 2, 2, 2, 2, 4, 4, 4, 4, 4, 4, 5, 4, 4, 4, 4, 4, 3, 3, 3, 3, 3, 3, 5, 5, 5, 5, 5, 5, 3, 3, 3, 3, 3, 3, 2, 2, 2, 2, 1, 1, 4, 4, 4, 4, 4, 4, 5, 4, 4, 4, 4, 4, 3, 3, 2, 2, 2, 1, 4, 4, 4, 3, 3, 3, 5, 4, 4, 4, 3, 3, 2, 2, 2, 1, 1, 1, 3, 2, 2, 2, 1, 1, 5, 4, 3, 3, 1, 1, 4, 3, 2, 2, 1, 1, 4, 3, 3, 3, 2, 2, 5, 5, 5, 5, 5, 5, 3, 3, 2, 2, 1, 1, 4, 4, 4, 3, 3, 3, 3, 2, 2, 2, 1, 1, 2, 2, 2, 2, 2, 2, 3, 3, 3, 3, 3, 3, 5, 4, 4, 4, 3, 3, 1, 1, 1, 1, 1, 1, 4, 4, 4, 4, 4, 4, 1, 1, 1, 1, 1, 1
 |2, 2, 2, 2, 2, 2, 3, 3, 3, 3, 3, 3, 2, 2, 2, 2, 1, 1, 5, 4, 4, 3, 3, 3, 3, 3, 3, 3, 2, 2, 4, 3, 3, 2, 1, 1, 5, 5, 5, 5, 5, 5, 3, 3, 3, 2, 2, 2, 4, 3, 3, 2, 2, 2, 1, 1, 1, 1, 1, 1, 1, 1, 1, 1, 1, 1, 3, 3, 3, 3, 3, 3, 4, 4, 4, 4, 4, 4, 2, 2, 2, 2, 2, 2, 4, 4, 4, 4, 4, 4, 4, 4, 4, 4, 4, 4, 2, 2, 2, 2, 2, 2, 4, 4, 4, 4, 4, 4, 2, 2, 2, 1, 1, 1, 5, 4, 4, 4, 4, 4, 4, 3, 3, 3, 2, 1, 2, 2, 2, 1, 1, 1, 5, 5, 5, 5, 5, 5, 4, 3, 3, 2, 2, 1, 5, 4, 4, 3, 3, 2, 1, 1, 1, 1, 1, 1, 2, 2, 2, 2, 2, 2, 4, 3, 3, 3, 2, 2, 2, 2, 2, 2, 1, 1, 2, 2, 2, 2, 2, 2, 5, 5, 5, 5, 5, 5, 4, 4, 4, 4, 4, 4, 1, 1, 1, 1, 1, 1, 4, 3, 3, 2, 1, 1, 3, 3, 3, 3, 3, 3, 4, 3, 3, 3, 3, 3, 4, 3, 2, 2, 1, 1, 2, 2, 2, 2, 2, 2, 5, 4, 4, 3, 3, 3, 2, 1, 1, 1, 1, 1, 3, 3, 3, 3, 3, 3, 3, 3, 3, 3, 3, 3, 5, 4, 4, 3, 2, 2, 2, 1, 1, 1, 1, 1, 1, 1, 1, 1, 1, 1, 1, 1, 1, 1, 1, 1, 4, 3, 3, 2, 1, 1, 2, 2, 2, 2, 2, 2, 4, 3, 3, 2, 2, 2, 4, 4, 4, 4, 4, 4
 |23, 20, 20, 14, 14, 11, 19, 16, 14, 9, 7, 4, 22, 19, 16, 13, 11, 9, 10, 9, 7, 6, 5, 5, 15, 13, 10, 8, 5, 2, 25, 22, 18, 17, 14, 12, 28, 20, 16, 11, 6, 6, 23, 22, 22, 22, 22, 22, 10, 10, 9, 7, 7, 6, 22, 18, 17, 12, 10, 9, 24, 18, 16, 13, 8, 4, 14, 13, 12, 11, 9, 9, 23, 22, 20, 18, 17, 15, 13, 12, 11, 7, 5, 5, 15, 12, 10, 8, 8, 6, 28, 27, 26, 25, 24, 24, 28, 21, 19, 14, 7, 5, 27, 24, 24, 22, 22, 21, 21, 16, 15, 14, 12, 9, 24, 18, 14, 12, 8, 6, 22, 21, 21, 19, 18, 18, 19, 17, 14, 13, 10, 8, 23, 23, 18, 17, 13, 11, 17, 14, 14, 11, 10, 9, 16, 16, 16, 16, 16, 16, 14, 12, 12, 10, 5, 4, 20, 20, 19, 17, 17, 16, 12, 12, 12, 12, 12, 12, 23, 21, 19, 15, 9, 3, 25, 25, 23, 23, 21, 20, 17, 15, 14, 12, 11, 9, 26, 21, 21, 18, 16, 14, 22, 20, 14, 13, 9, 7, 25, 20, 18, 9, 8, 2, 21, 21, 18, 17, 13, 13, 11, 10, 9, 8, 7, 5, 24, 24, 22, 21, 20, 20, 20, 15, 13, 9, 6, 4, 13, 13, 13, 13, 13, 13, 14, 11, 9, 8, 6, 4, 21, 16, 12, 10, 8, 5, 23, 23, 23, 23, 23, 23, 20, 18, 16, 14, 12, 11, 17, 15, 15, 15, 14, 13, 28, 26, 24, 24, 22, 21, 6, 5, 5, 5, 4, 4, 27, 25, 20, 20, 16, 12, 11, 10, 10, 8, 6, 5, 24, 19, 15, 15, 10, 6, 16, 16, 16, 16, 16, 16
 |3, 3, 3, 3, 3, 3, 18, 16, 15, 11, 11, 9, 28, 24, 21, 17, 15, 10, 7, 6, 5, 4, 3, 2, 17, 17, 17, 16, 16, 16, 25, 23, 21, 20, 19, 15, 13, 12, 9, 9, 7, 5, 29, 27, 25, 20, 18, 17, 27, 23, 22, 20, 13, 11, 18, 18, 17, 17, 15, 15, 25, 23, 22, 19, 16, 15, 19, 15, 15, 12, 11, 9, 24, 24, 23, 23, 23, 22, 14, 13, 12, 10, 10, 9, 21, 18, 15, 10, 7, 5, 7, 7, 7, 7, 7, 7, 18, 16, 12, 12, 10, 7, 10, 9, 9, 7, 7, 6, 15, 13, 13, 9, 8, 6, 25, 22, 16, 15, 9, 4, 24, 22, 16, 13, 7, 5, 14, 13, 11, 6, 6, 2, 22, 21, 20, 17, 16, 13, 19, 16, 14, 12, 8, 8, 15, 13, 12, 11, 8, 7, 22, 22, 22, 22, 22, 22, 22, 22, 17, 12, 10, 6, 15, 13, 12, 10, 10, 8, 21, 21, 21, 21, 21, 21, 28, 28, 28, 28, 28, 28, 20, 18, 17, 14, 13, 12, 5, 4, 4, 4, 4, 4, 19, 17, 16, 13, 11, 10, 4, 4, 4, 4, 4, 4, 28, 21, 15, 11, 8, 2, 27, 24, 24, 21, 20, 19, 28, 20, 18, 11, 10, 3, 5, 5, 5, 5, 5, 5, 12, 10, 9, 6, 6, 5, 7, 7, 7, 7, 7, 7, 20, 19, 18, 16, 16, 15, 24, 23, 20, 16, 13, 11, 12, 11, 11, 11, 11, 11, 30, 28, 28, 26, 25, 24, 29, 29, 28, 27, 27, 26, 6, 5, 3, 3, 2, 1, 20, 16, 13, 13, 11, 8, 19, 19, 17, 15, 13, 10, 9, 7, 6, 6, 4, 4, 15, 12, 11, 10, 10, 8
 |27, 27, 24, 22, 19, 16, 15, 15, 14, 14, 14, 13, 28, 27, 26, 25, 22, 22, 19, 18, 16, 14, 11, 7, 26, 24, 24, 22, 20, 18, 20, 15, 15, 10, 6, 4, 18, 17, 11, 10, 8, 3, 25, 22, 22, 20, 18, 16, 11, 10, 10, 8, 7, 5, 25, 21, 20, 17, 13, 11, 23, 21, 20, 15, 13, 9, 29, 26, 25, 25, 24, 23, 10, 8, 5, 5, 4, 1, 27, 26, 23, 20, 20, 18, 12, 11, 11, 10, 9, 7, 8, 7, 6, 5, 4, 4, 13, 12, 8, 7, 3, 1, 20, 18, 18, 17, 16, 16, 16, 14, 12, 12, 9, 8, 21, 19, 16, 15, 13, 10, 25, 23, 17, 15, 8, 6, 14, 12, 12, 12, 11, 10, 28, 27, 23, 23, 18, 18, 23, 19, 17, 13, 12, 7, 25, 20, 17, 11, 8, 6, 18, 18, 17, 14, 13, 13, 12, 11, 11, 10, 9, 8, 22, 22, 22, 22, 22, 22, 26, 22, 20, 16, 15, 10, 19, 15, 14, 12, 8, 6, 24, 17, 17, 11, 6, 3, 20, 17, 15, 12, 8, 7, 21, 19, 19, 17, 17, 16, 28, 23, 20, 19, 15, 15, 14, 9, 9, 6, 4, 2, 9, 9, 8, 7, 5, 5, 15, 13, 13, 10, 6, 6, 26, 25, 21, 21, 17, 16, 24, 24, 24, 23, 23, 22, 28, 24, 22, 18, 15, 11, 11, 10, 8, 6, 4, 4, 15, 12, 9, 9, 6, 5, 23, 20, 17, 14, 11, 8, 20, 18, 14, 10, 9, 3, 28, 27, 27, 27, 27, 27, 17, 15, 14, 11, 7, 4, 15, 14, 14, 13, 13, 12, 21, 16, 13, 9, 6, 4, 27, 24, 17, 15, 12, 7, 13, 13, 13, 13, 13, 13
 |22, 18, 16, 13, 9, 7, 25, 24, 24, 24, 24, 24, 25, 25, 25, 25, 24, 24, 26, 24, 20, 19, 16, 13, 22, 22, 22, 22, 22, 22, 14, 12, 10, 9, 7, 6, 13, 12, 12, 11, 11, 11, 17, 14, 11, 8, 5, 3, 20, 19, 19, 18, 18, 18, 29, 27, 25, 25, 23, 22, 11, 11, 9, 9, 8, 6, 11, 10, 10, 9, 9, 9, 28, 28, 28, 28, 28, 28, 3, 3, 2, 2, 1, 1, 28, 27, 23, 22, 19, 18, 7, 7, 7, 7, 7, 6, 23, 20, 19, 17, 14, 12, 21, 17, 13, 10, 8, 4, 30, 29, 28, 27, 26, 25, 15, 15, 15, 15, 15, 15, 18, 15, 13, 11, 10, 8, 27, 27, 27, 27, 26, 26, 4, 4, 3, 3, 2, 2, 16, 13, 10, 7, 4, 3, 14, 13, 10, 9, 7, 6, 6, 6, 6, 6, 6, 6, 15, 12, 10, 10, 6, 5, 18, 18, 17, 17, 16, 16, 6, 6, 5, 4, 3, 2, 18, 17, 15, 14, 14, 13, 21, 21, 20, 20, 20, 19, 15, 14, 11, 9, 7, 3, 26, 25, 23, 21, 19, 16, 30, 28, 27, 24, 23, 22, 22, 20, 20, 19, 18, 18, 15, 14, 14, 13, 12, 10, 14, 14, 12, 12, 11, 10, 22, 18, 18, 13, 10, 7, 28, 26, 22, 21, 20, 17, 13, 12, 12, 11, 11, 11, 9, 9, 7, 6, 4, 3, 14, 13, 11, 10, 9, 8, 4, 4, 4, 4, 4, 4, 22, 22, 22, 21, 21, 21, 22, 20, 15, 10, 6, 1, 13, 12, 9, 8, 6, 3, 19, 18, 16, 14, 12, 11, 25, 21, 19, 17, 17, 15, 12, 10, 10, 10, 8, 8, 25, 25, 25, 25, 25, 25|];